Route #1: 1 1 44 49 53 28 2 24 1 
Route #2: 1 5 45 48 46 1 
Route #3: 1 36 54 50 35 37 52 18 47 23 58 1 
Route #4: 1 22 10 42 51 56 27 15 19 20 1 
Route #5: 1 34 6 21 4 11 40 3 16 33 32 1 
Route #6: 1 31 25 41 55 13 26 1 
Route #7: 1 30 9 57 29 7 39 1 
Route #8: 1 14 38 59 8 17 1 
Route #9: 1 43 12 1 

Cost 1929
Time 0.4878


 * Another infos *

 Iterations: 60 Time: 0.4878 sec - 0.0081 min - 0.0001 horas
0.0000 h 0.0081 min
Problem dimension: 60
